
(set-logic HORN)
(declare-fun Z_458 () Int)
(declare-fun S_157 (Int) Int)
(declare-fun diseqInt (Int Int) Bool)
(declare-fun unS_169 (Int Int) Bool)
(declare-fun isZ_157 (Int) Bool)
(declare-fun isS_157 (Int) Bool)
(assert (forall ((x_4461 Int))
	(unS_169 x_4461 (S_157 x_4461))))
(assert (isZ_157 Z_458))
(assert (forall ((x_4463 Int))
	(isS_157 (S_157 x_4463))))
(assert (forall ((x_4464 Int))
	(diseqInt Z_458 (S_157 x_4464))))
(assert (forall ((x_4465 Int))
	(diseqInt (S_157 x_4465) Z_458)))
(assert (forall ((x_4466 Int) (x_4467 Int))
	(=> (diseqInt x_4466 x_4467) (diseqInt (S_157 x_4466) (S_157 x_4467)))))
(declare-fun add_84 (Int Int Int) Bool)
(declare-fun minus_84 (Int Int Int) Bool)
(declare-fun le_84 (Int Int) Bool)
(declare-fun ge_84 (Int Int) Bool)
(declare-fun lt_84 (Int Int) Bool)
(declare-fun gt_84 (Int Int) Bool)
(declare-fun mult_84 (Int Int Int) Bool)
(declare-fun div_84 (Int Int Int) Bool)
(declare-fun mod_84 (Int Int Int) Bool)
(assert (forall ((y_372 Int))
	(add_84 y_372 Z_458 y_372)))
(assert (forall ((x_4458 Int) (y_372 Int) (r_87 Int))
	(=> (add_84 r_87 x_4458 y_372) (add_84 (S_157 r_87) (S_157 x_4458) y_372))))
(assert (forall ((y_372 Int))
	(minus_84 Z_458 Z_458 y_372)))
(assert (forall ((x_4458 Int) (y_372 Int) (r_87 Int))
	(=> (minus_84 r_87 x_4458 y_372) (minus_84 (S_157 r_87) (S_157 x_4458) y_372))))
(assert (forall ((y_372 Int))
	(le_84 Z_458 y_372)))
(assert (forall ((x_4458 Int) (y_372 Int))
	(=> (le_84 x_4458 y_372) (le_84 (S_157 x_4458) (S_157 y_372)))))
(assert (forall ((y_372 Int))
	(ge_84 y_372 Z_458)))
(assert (forall ((x_4458 Int) (y_372 Int))
	(=> (ge_84 x_4458 y_372) (ge_84 (S_157 x_4458) (S_157 y_372)))))
(assert (forall ((y_372 Int))
	(lt_84 Z_458 (S_157 y_372))))
(assert (forall ((x_4458 Int) (y_372 Int))
	(=> (lt_84 x_4458 y_372) (lt_84 (S_157 x_4458) (S_157 y_372)))))
(assert (forall ((y_372 Int))
	(gt_84 (S_157 y_372) Z_458)))
(assert (forall ((x_4458 Int) (y_372 Int))
	(=> (gt_84 x_4458 y_372) (gt_84 (S_157 x_4458) (S_157 y_372)))))
(assert (forall ((y_372 Int))
	(mult_84 Z_458 Z_458 y_372)))
(assert (forall ((x_4458 Int) (y_372 Int) (r_87 Int) (z_459 Int))
	(=> (and (mult_84 r_87 x_4458 y_372) (add_84 z_459 r_87 y_372)) (mult_84 z_459 (S_157 x_4458) y_372))))
(assert (forall ((x_4458 Int) (y_372 Int))
	(=> (lt_84 x_4458 y_372) (div_84 Z_458 x_4458 y_372))))
(assert (forall ((x_4458 Int) (y_372 Int) (r_87 Int) (z_459 Int))
	(=> (and (ge_84 x_4458 y_372) (minus_84 z_459 x_4458 y_372) (div_84 r_87 z_459 y_372)) (div_84 (S_157 r_87) x_4458 y_372))))
(assert (forall ((x_4458 Int) (y_372 Int))
	(=> (lt_84 x_4458 y_372) (mod_84 x_4458 x_4458 y_372))))
(assert (forall ((x_4458 Int) (y_372 Int) (r_87 Int) (z_459 Int))
	(=> (and (ge_84 x_4458 y_372) (minus_84 z_459 x_4458 y_372) (mod_84 r_87 z_459 y_372)) (mod_84 r_87 x_4458 y_372))))
(declare-datatypes ((list_68 0)) (((nil_69) (cons_68 (head_136 Int) (tail_136 list_68)))))
(declare-fun diseqlist_68 (list_68 list_68) Bool)
(declare-fun head_137 (Int list_68) Bool)
(declare-fun tail_137 (list_68 list_68) Bool)
(declare-fun isnil_69 (list_68) Bool)
(declare-fun iscons_68 (list_68) Bool)
(assert (forall ((x_4469 Int) (x_4470 list_68))
	(head_137 x_4469 (cons_68 x_4469 x_4470))))
(assert (forall ((x_4469 Int) (x_4470 list_68))
	(tail_137 x_4470 (cons_68 x_4469 x_4470))))
(assert (isnil_69 nil_69))
(assert (forall ((x_4472 Int) (x_4473 list_68))
	(iscons_68 (cons_68 x_4472 x_4473))))
(assert (forall ((x_4474 Int) (x_4475 list_68))
	(diseqlist_68 nil_69 (cons_68 x_4474 x_4475))))
(assert (forall ((x_4476 Int) (x_4477 list_68))
	(diseqlist_68 (cons_68 x_4476 x_4477) nil_69)))
(assert (forall ((x_4478 Int) (x_4479 list_68) (x_4480 Int) (x_4481 list_68))
	(=> (diseqInt x_4478 x_4480) (diseqlist_68 (cons_68 x_4478 x_4479) (cons_68 x_4480 x_4481)))))
(assert (forall ((x_4478 Int) (x_4479 list_68) (x_4480 Int) (x_4481 list_68))
	(=> (diseqlist_68 x_4479 x_4481) (diseqlist_68 (cons_68 x_4478 x_4479) (cons_68 x_4480 x_4481)))))
(declare-fun sort_3 (list_68 Int Int) Bool)
(assert (forall ((x_4372 Int) (y_363 Int))
	(=> (le_84 x_4372 y_363) (sort_3 (cons_68 x_4372 (cons_68 y_363 nil_69)) x_4372 y_363))))
(assert (forall ((x_4372 Int) (y_363 Int))
	(=> (gt_84 x_4372 y_363) (sort_3 (cons_68 y_363 (cons_68 x_4372 nil_69)) x_4372 y_363))))
(declare-fun evens_0 (list_68 list_68) Bool)
(declare-fun odds_0 (list_68 list_68) Bool)
(assert (forall ((x_4398 list_68) (y_364 Int) (xs_127 list_68))
	(=> (odds_0 x_4398 xs_127) (evens_0 (cons_68 y_364 x_4398) (cons_68 y_364 xs_127)))))
(assert (evens_0 nil_69 nil_69))
(assert (forall ((x_4400 list_68) (y_365 Int) (xs_128 list_68))
	(=> (evens_0 x_4400 xs_128) (odds_0 x_4400 (cons_68 y_365 xs_128)))))
(assert (odds_0 nil_69 nil_69))
(declare-fun count_11 (Int Int list_68) Bool)
(assert (forall ((x_4403 Int) (x_4404 Int) (ys_32 list_68) (x_4375 Int))
	(=> (and (count_11 x_4404 x_4375 ys_32) (add_84 x_4403 (S_157 Z_458) x_4404)) (count_11 x_4403 x_4375 (cons_68 x_4375 ys_32)))))
(assert (forall ((x_4405 Int) (z_452 Int) (ys_32 list_68) (x_4375 Int))
	(=> (and (diseqInt x_4375 z_452) (count_11 x_4405 x_4375 ys_32)) (count_11 x_4405 x_4375 (cons_68 z_452 ys_32)))))
(assert (forall ((x_4375 Int))
	(count_11 Z_458 x_4375 nil_69)))
(declare-fun x_4376 (list_68 list_68 list_68) Bool)
(assert (forall ((x_4409 list_68) (z_453 Int) (xs_129 list_68) (y_367 list_68))
	(=> (x_4376 x_4409 xs_129 y_367) (x_4376 (cons_68 z_453 x_4409) (cons_68 z_453 xs_129) y_367))))
(assert (forall ((x_4410 list_68))
	(x_4376 x_4410 nil_69 x_4410)))
(declare-fun pairs_0 (list_68 list_68 list_68) Bool)
(assert (forall ((x_4411 list_68) (x_4412 list_68) (x_4413 list_68) (x_4380 Int) (x_4381 list_68) (z_454 Int) (x_4379 list_68))
	(=> (and (sort_3 x_4412 z_454 x_4380) (pairs_0 x_4413 x_4379 x_4381) (x_4376 x_4411 x_4412 x_4413)) (pairs_0 x_4411 (cons_68 z_454 x_4379) (cons_68 x_4380 x_4381)))))
(assert (forall ((z_454 Int) (x_4379 list_68))
	(pairs_0 (cons_68 z_454 x_4379) (cons_68 z_454 x_4379) nil_69)))
(assert (forall ((x_4416 list_68))
	(pairs_0 x_4416 nil_69 x_4416)))
(declare-fun stitch_0 (list_68 list_68 list_68) Bool)
(assert (forall ((x_4418 list_68) (z_455 Int) (xs_130 list_68) (y_369 list_68))
	(=> (pairs_0 x_4418 xs_130 y_369) (stitch_0 (cons_68 z_455 x_4418) (cons_68 z_455 xs_130) y_369))))
(assert (forall ((x_4419 list_68))
	(stitch_0 x_4419 nil_69 x_4419)))
(declare-fun bmerge_0 (list_68 list_68 list_68) Bool)
(assert (forall ((x_4420 list_68) (x_4421 list_68) (x_4422 list_68) (x_4423 list_68) (x_4424 list_68) (x_4425 list_68) (x_4387 Int) (x_4388 list_68) (fail_0 list_68) (x_4385 Int) (x_4386 list_68) (z_456 Int))
	(=> (and (evens_0 x_4420 (cons_68 z_456 (cons_68 x_4387 x_4388))) (evens_0 x_4421 (cons_68 x_4385 x_4386)) (bmerge_0 x_4422 x_4420 x_4421) (odds_0 x_4423 (cons_68 z_456 (cons_68 x_4387 x_4388))) (odds_0 x_4424 (cons_68 x_4385 x_4386)) (bmerge_0 x_4425 x_4423 x_4424) (stitch_0 fail_0 x_4422 x_4425)) (bmerge_0 fail_0 (cons_68 z_456 (cons_68 x_4387 x_4388)) (cons_68 x_4385 x_4386)))))
(assert (forall ((x_4428 list_68) (x_4429 list_68) (x_4430 list_68) (x_4431 list_68) (x_4432 list_68) (x_4433 list_68) (x_4389 Int) (x_4390 list_68) (fail_0 list_68) (x_4385 Int) (z_456 Int))
	(=> (and (evens_0 x_4428 (cons_68 z_456 nil_69)) (evens_0 x_4429 (cons_68 x_4385 (cons_68 x_4389 x_4390))) (bmerge_0 x_4430 x_4428 x_4429) (odds_0 x_4431 (cons_68 z_456 nil_69)) (odds_0 x_4432 (cons_68 x_4385 (cons_68 x_4389 x_4390))) (bmerge_0 x_4433 x_4431 x_4432) (stitch_0 fail_0 x_4430 x_4433)) (bmerge_0 fail_0 (cons_68 z_456 nil_69) (cons_68 x_4385 (cons_68 x_4389 x_4390))))))
(assert (forall ((x_4443 list_68) (x_4436 list_68) (x_4437 list_68) (x_4438 list_68) (x_4439 list_68) (x_4440 list_68) (x_4441 list_68) (fail_0 list_68) (x_4385 Int) (z_456 Int))
	(=> (and (sort_3 x_4443 z_456 x_4385) (evens_0 x_4436 (cons_68 z_456 nil_69)) (evens_0 x_4437 (cons_68 x_4385 nil_69)) (bmerge_0 x_4438 x_4436 x_4437) (odds_0 x_4439 (cons_68 z_456 nil_69)) (odds_0 x_4440 (cons_68 x_4385 nil_69)) (bmerge_0 x_4441 x_4439 x_4440) (stitch_0 fail_0 x_4438 x_4441)) (bmerge_0 x_4443 (cons_68 z_456 nil_69) (cons_68 x_4385 nil_69)))))
(assert (forall ((z_456 Int) (x_4384 list_68))
	(bmerge_0 (cons_68 z_456 x_4384) (cons_68 z_456 x_4384) nil_69)))
(assert (forall ((y_370 list_68))
	(bmerge_0 nil_69 nil_69 y_370)))
(declare-fun bsort_0 (list_68 list_68) Bool)
(assert (forall ((x_4447 list_68) (x_4448 list_68) (x_4449 list_68) (x_4450 list_68) (x_4451 list_68) (x_4392 Int) (x_4393 list_68) (y_371 Int))
	(=> (and (evens_0 x_4448 (cons_68 y_371 (cons_68 x_4392 x_4393))) (bsort_0 x_4449 x_4448) (odds_0 x_4450 (cons_68 y_371 (cons_68 x_4392 x_4393))) (bsort_0 x_4451 x_4450) (bmerge_0 x_4447 x_4449 x_4451)) (bsort_0 x_4447 (cons_68 y_371 (cons_68 x_4392 x_4393))))))
(assert (forall ((y_371 Int))
	(bsort_0 (cons_68 y_371 nil_69) (cons_68 y_371 nil_69))))
(assert (bsort_0 nil_69 nil_69))
(assert (forall ((x_4455 list_68) (x_4456 Int) (x_4457 Int) (x_4394 Int) (xs_131 list_68))
	(=> (and true (diseqInt x_4456 x_4457) (bsort_0 x_4455 xs_131) (count_11 x_4456 x_4394 x_4455) (count_11 x_4457 x_4394 xs_131)) false)))
(check-sat)
